# Created by charmm2lammps v1.9.1 on Do 23. Mai 18:34:39 UTC 2019
# Command: charmm2lammps.pl all36_lipid_extended_stripped 1_SDS_on_AU_111_12x7x2_psfgen -border=0 -lx=34.578 -ly=34.936 -lz=60.0

units           real
neigh_modify    delay 2 every 1

atom_style      full
bond_style      harmonic
angle_style     charmm
dihedral_style  charmm
pair_style      lj/charmm/coul/long 8 12
pair_modify     mix arithmetic
kspace_style    pppm 1e-6

read_data       1_SDS_on_AU_111_12x7x2_psfgen.data

special_bonds   charmm
thermo          10
thermo_style    multi
timestep        1.0

minimize 0.0 0.0 50 200

reset_timestep  0
fix             1 all nve
fix             2 all shake 1e-6 500 0 m 1.0 a 11
velocity        all create 0.0 12345678 dist uniform

restart         500 1_SDS_on_AU_111_12x7x2_psfgen.restart1 1_SDS_on_AU_111_12x7x2_psfgen.restart2
dump            1 all atom 100 1_SDS_on_AU_111_12x7x2_psfgen.dump
dump_modify     1 image yes scale yes

thermo          100
run             1000
